(set-logic QF_NRA)
(set-info :source |Benchmarks generated from hycomp (https://es-static.fbk.eu/tools/hycomp/). BMC instances of non-linear hybrid automata taken from: Alessandro Cimatti, Sergio Mover, Stefano Tonetta, A quantifier-free SMT encoding of non-linear hybrid automata, FMCAD 2012 and Alessandro Cimatti, Sergio Mover, Stefano Tonetta, Quantier-free encoding of invariants for Hybrid Systems, Formal Methods in System Design. This instance solves a BMC problem of depth 3 and uses the quantifier free encoding with lemmas encoding. Contacts: Sergio Mover (mover@fbk.eu), Stefano Tonetta (tonettas@fbk.eu), Alessandro Cimatti (cimatti@fbk.eu).|)
(set-info :smt-lib-version 2.0)
(set-info :category "industrial")
(set-info :status unsat)
;; MathSAT API call trace
;; generated on Mon Mar 19 10:48:25 2012
(declare-fun b.delta__AT1 () Real)
(declare-fun b.EVENT.0__AT1 () Bool)
(declare-fun b.EVENT.1__AT0 () Bool)
(declare-fun b.EVENT.1__AT1 () Bool)
(declare-fun b.EVENT.0__AT0 () Bool)
(declare-fun b.event_is_timed__AT2 () Bool)
(declare-fun b.time__AT1 () Real)
(declare-fun b.speed_y__AT1 () Real)
(declare-fun b.time__AT0 () Real)
(declare-fun b.time__AT2 () Real)
(declare-fun b.y__AT0 () Real)
(declare-fun b.delta__AT2 () Real)
(declare-fun b.counter.0__AT0 () Bool)
(declare-fun b.EVENT.0__AT2 () Bool)
(declare-fun b.counter.2__AT0 () Bool)
(declare-fun b.y__AT2 () Real)
(declare-fun b.event_is_timed__AT3 () Bool)
(declare-fun b.counter.1__AT0 () Bool)
(declare-fun b.EVENT.1__AT2 () Bool)
(declare-fun b.counter.1__AT1 () Bool)
(declare-fun b.counter.2__AT1 () Bool)
(declare-fun b.y__AT3 () Real)
(declare-fun b.counter.0__AT3 () Bool)
(declare-fun speed_loss__AT0 () Real)
(declare-fun b.time__AT3 () Real)
(declare-fun b.counter.1__AT3 () Bool)
(declare-fun b.delta__AT3 () Real)
(declare-fun b.speed_y__AT0 () Real)
(declare-fun b.counter.2__AT3 () Bool)
(declare-fun b.event_is_timed__AT1 () Bool)
(declare-fun b.EVENT.0__AT3 () Bool)
(declare-fun b.counter.0__AT2 () Bool)
(declare-fun b.counter.3__AT3 () Bool)
(declare-fun b.event_is_timed__AT0 () Bool)
(declare-fun b.speed_y__AT2 () Real)
(declare-fun b.EVENT.1__AT3 () Bool)
(declare-fun b.counter.1__AT2 () Bool)
(declare-fun b.counter.3__AT1 () Bool)
(declare-fun b.counter.2__AT2 () Bool)
(declare-fun b.delta__AT0 () Real)
(declare-fun b.speed_y__AT3 () Real)
(declare-fun b.counter.3__AT2 () Bool)
(declare-fun b.y__AT1 () Real)
(declare-fun b.counter.0__AT1 () Bool)
(declare-fun b.counter.3__AT0 () Bool)
(assert (let ((.def_674 (<= b.speed_y__AT3 0.0 )))
(let ((.def_656 (* (- 49.0) b.delta__AT3)))
(let ((.def_657 (* 5.0 b.speed_y__AT3)))
(let ((.def_659 (+ .def_657 .def_656)))
(let ((.def_672 (<= .def_659 0.0 )))
(let ((.def_691 (and .def_672 .def_674)))
(let ((.def_660 (<= 0.0 .def_659)))
(let ((.def_661 (not .def_660)))
(let ((.def_654 (<= 0.0 b.speed_y__AT3)))
(let ((.def_688 (or .def_654 .def_661)))
(let ((.def_675 (not .def_674)))
(let ((.def_687 (or .def_672 .def_675)))
(let ((.def_689 (and .def_687 .def_688)))
(let ((.def_692 (and .def_689 .def_691)))
(let ((.def_686 (and .def_654 .def_660)))
(let ((.def_690 (and .def_686 .def_689)))
(let ((.def_693 (or .def_690 .def_692)))
(let ((.def_646 (* b.speed_y__AT3 b.delta__AT3)))
(let ((.def_647 (* 10.0 .def_646)))
(let ((.def_644 (* b.delta__AT3 b.delta__AT3)))
(let ((.def_645 (* (- 49.0) .def_644)))
(let ((.def_648 (+ .def_645 .def_647)))
(let ((.def_649 (* 10.0 b.y__AT3)))
(let ((.def_651 (+ .def_649 .def_648)))
(let ((.def_666 (<= .def_651 0.0 )))
(let ((.def_680 (not .def_666)))
(let ((.def_664 (<= b.y__AT3 0.0 )))
(let ((.def_681 (or .def_664 .def_680)))
(let ((.def_634 (<= 0.0 b.y__AT3)))
(let ((.def_678 (not .def_634)))
(let ((.def_652 (<= 0.0 .def_651)))
(let ((.def_679 (or .def_652 .def_678)))
(let ((.def_682 (and .def_679 .def_681)))
(let ((.def_673 (not .def_672)))
(let ((.def_676 (or .def_673 .def_675)))
(let ((.def_677 (not .def_676)))
(let ((.def_683 (or .def_677 .def_682)))
(let ((.def_668 (not .def_652)))
(let ((.def_669 (or .def_634 .def_668)))
(let ((.def_665 (not .def_664)))
(let ((.def_667 (or .def_665 .def_666)))
(let ((.def_670 (and .def_667 .def_669)))
(let ((.def_655 (not .def_654)))
(let ((.def_662 (or .def_655 .def_661)))
(let ((.def_663 (not .def_662)))
(let ((.def_671 (or .def_663 .def_670)))
(let ((.def_684 (and .def_671 .def_683)))
(let ((.def_653 (and .def_634 .def_652)))
(let ((.def_685 (and .def_653 .def_684)))
(let ((.def_694 (and .def_685 .def_693)))
(let ((.def_59 (<= speed_loss__AT0 (/ 1 2))))
(let ((.def_56 (<= (/ 1 10) speed_loss__AT0)))
(let ((.def_60 (and .def_56 .def_59)))
(let ((.def_695 (and .def_60 .def_694)))
(let ((.def_337 (not b.counter.0__AT2)))
(let ((.def_325 (not b.counter.1__AT2)))
(let ((.def_638 (and .def_325 .def_337)))
(let ((.def_332 (not b.counter.2__AT2)))
(let ((.def_639 (and .def_332 .def_638)))
(let ((.def_347 (not b.counter.3__AT2)))
(let ((.def_640 (and .def_347 .def_639)))
(let ((.def_635 (and .def_60 .def_634)))
(let ((.def_631 (not b.EVENT.0__AT3)))
(let ((.def_629 (not b.EVENT.1__AT3)))
(let ((.def_632 (or .def_629 .def_631)))
(let ((.def_6 (not b.counter.0__AT3)))
(let ((.def_4 (not b.counter.1__AT3)))
(let ((.def_622 (or .def_4 .def_6)))
(let ((.def_626 (or b.counter.3__AT3 .def_622)))
(let ((.def_623 (or b.counter.2__AT3 .def_622)))
(let ((.def_9 (not b.counter.2__AT3)))
(let ((.def_621 (or .def_6 .def_9)))
(let ((.def_624 (and .def_621 .def_623)))
(let ((.def_12 (not b.counter.3__AT3)))
(let ((.def_625 (or .def_12 .def_624)))
(let ((.def_627 (and .def_625 .def_626)))
(let ((.def_633 (and .def_627 .def_632)))
(let ((.def_636 (and .def_633 .def_635)))
(let ((.def_616 (<= 0.0 b.delta__AT2)))
(let ((.def_445 (not b.EVENT.0__AT2)))
(let ((.def_443 (not b.EVENT.1__AT2)))
(let ((.def_563 (and .def_443 .def_445)))
(let ((.def_567 (not .def_563)))
(let ((.def_617 (or .def_567 .def_616)))
(let ((.def_618 (or b.EVENT.1__AT2 .def_617)))
(let ((.def_555 (= b.counter.0__AT3 b.counter.0__AT2)))
(let ((.def_553 (= b.counter.1__AT3 b.counter.1__AT2)))
(let ((.def_551 (= b.counter.2__AT3 b.counter.2__AT2)))
(let ((.def_550 (= b.counter.3__AT3 b.counter.3__AT2)))
(let ((.def_552 (and .def_550 .def_551)))
(let ((.def_554 (and .def_552 .def_553)))
(let ((.def_556 (and .def_554 .def_555)))
(let ((.def_613 (or .def_556 .def_567)))
(let ((.def_614 (or b.EVENT.1__AT2 .def_613)))
(let ((.def_601 (* (- 10.0) b.y__AT3)))
(let ((.def_460 (* b.speed_y__AT2 b.delta__AT2)))
(let ((.def_461 (* 10.0 .def_460)))
(let ((.def_605 (+ .def_461 .def_601)))
(let ((.def_458 (* b.delta__AT2 b.delta__AT2)))
(let ((.def_459 (* (- 49.0) .def_458)))
(let ((.def_606 (+ .def_459 .def_605)))
(let ((.def_463 (* 10.0 b.y__AT2)))
(let ((.def_607 (+ .def_463 .def_606)))
(let ((.def_608 (= .def_607 0.0 )))
(let ((.def_597 (* (- 5.0) b.speed_y__AT3)))
(let ((.def_470 (* (- 49.0) b.delta__AT2)))
(let ((.def_598 (+ .def_470 .def_597)))
(let ((.def_471 (* 5.0 b.speed_y__AT2)))
(let ((.def_599 (+ .def_471 .def_598)))
(let ((.def_600 (= .def_599 0.0 )))
(let ((.def_609 (and .def_600 .def_608)))
(let ((.def_610 (or .def_567 .def_609)))
(let ((.def_561 (= b.y__AT2 b.y__AT3)))
(let ((.def_549 (= b.speed_y__AT2 b.speed_y__AT3)))
(let ((.def_594 (and .def_549 .def_561)))
(let ((.def_591 (= b.delta__AT2 0.0 )))
(let ((.def_592 (and .def_563 .def_591)))
(let ((.def_593 (not .def_592)))
(let ((.def_595 (or .def_593 .def_594)))
(let ((.def_596 (or b.EVENT.1__AT2 .def_595)))
(let ((.def_611 (and .def_596 .def_610)))
(let ((.def_573 (= b.time__AT2 b.time__AT3)))
(let ((.def_585 (and .def_561 .def_573)))
(let ((.def_586 (and .def_549 .def_585)))
(let ((.def_587 (and .def_556 .def_586)))
(let ((.def_588 (or .def_443 .def_587)))
(let ((.def_576 (* (- 1.0) b.time__AT3)))
(let ((.def_579 (+ b.delta__AT2 .def_576)))
(let ((.def_580 (+ b.time__AT2 .def_579)))
(let ((.def_581 (= .def_580 0.0 )))
(let ((.def_582 (or .def_567 .def_581)))
(let ((.def_583 (or b.EVENT.1__AT2 .def_582)))
(let ((.def_574 (or .def_563 .def_573)))
(let ((.def_575 (or b.EVENT.1__AT2 .def_574)))
(let ((.def_584 (and .def_575 .def_583)))
(let ((.def_589 (and .def_584 .def_588)))
(let ((.def_569 (= .def_567 b.event_is_timed__AT3)))
(let ((.def_566 (= b.event_is_timed__AT2 .def_563)))
(let ((.def_570 (and .def_566 .def_569)))
(let ((.def_557 (and .def_549 .def_556)))
(let ((.def_511 (= b.y__AT2 0.0 )))
(let ((.def_468 (<= 0.0 b.speed_y__AT2)))
(let ((.def_469 (not .def_468)))
(let ((.def_512 (and .def_469 .def_511)))
(let ((.def_558 (or .def_512 .def_557)))
(let ((.def_526 (or .def_6 b.counter.0__AT2)))
(let ((.def_525 (or b.counter.0__AT3 .def_337)))
(let ((.def_527 (and .def_525 .def_526)))
(let ((.def_528 (and .def_4 .def_527)))
(let ((.def_529 (or b.counter.1__AT2 .def_528)))
(let ((.def_524 (or b.counter.1__AT3 .def_325)))
(let ((.def_530 (and .def_524 .def_529)))
(let ((.def_541 (and .def_9 .def_530)))
(let ((.def_542 (or b.counter.2__AT2 .def_541)))
(let ((.def_536 (and .def_4 .def_337)))
(let ((.def_537 (or b.counter.1__AT2 .def_536)))
(let ((.def_538 (and .def_524 .def_537)))
(let ((.def_539 (and b.counter.2__AT3 .def_538)))
(let ((.def_540 (or .def_332 .def_539)))
(let ((.def_543 (and .def_540 .def_542)))
(let ((.def_544 (and b.counter.3__AT3 .def_543)))
(let ((.def_545 (or b.counter.3__AT2 .def_544)))
(let ((.def_531 (and b.counter.2__AT3 .def_530)))
(let ((.def_532 (or b.counter.2__AT2 .def_531)))
(let ((.def_520 (or b.counter.1__AT3 b.counter.1__AT2)))
(let ((.def_518 (and .def_4 b.counter.0__AT3)))
(let ((.def_519 (or .def_325 .def_518)))
(let ((.def_521 (and .def_519 .def_520)))
(let ((.def_522 (and .def_9 .def_521)))
(let ((.def_523 (or .def_332 .def_522)))
(let ((.def_533 (and .def_523 .def_532)))
(let ((.def_534 (and .def_12 .def_533)))
(let ((.def_535 (or .def_347 .def_534)))
(let ((.def_546 (and .def_535 .def_545)))
(let ((.def_514 (* (- 1.0) b.speed_y__AT2)))
(let ((.def_126 (* (- 1.0) speed_loss__AT0)))
(let ((.def_127 (+ 1.0 .def_126)))
(let ((.def_515 (* .def_127 .def_514)))
(let ((.def_517 (= .def_515 b.speed_y__AT3)))
(let ((.def_547 (and .def_517 .def_546)))
(let ((.def_513 (not .def_512)))
(let ((.def_548 (or .def_513 .def_547)))
(let ((.def_559 (and .def_548 .def_558)))
(let ((.def_562 (and .def_559 .def_561)))
(let ((.def_564 (or .def_562 .def_563)))
(let ((.def_565 (or b.EVENT.1__AT2 .def_564)))
(let ((.def_571 (and .def_565 .def_570)))
(let ((.def_590 (and .def_571 .def_589)))
(let ((.def_612 (and .def_590 .def_611)))
(let ((.def_615 (and .def_612 .def_614)))
(let ((.def_619 (and .def_615 .def_618)))
(let ((.def_620 (and .def_443 .def_619)))
(let ((.def_637 (and .def_620 .def_636)))
(let ((.def_641 (and .def_637 .def_640)))
(let ((.def_488 (<= b.speed_y__AT2 0.0 )))
(let ((.def_473 (+ .def_471 .def_470)))
(let ((.def_486 (<= .def_473 0.0 )))
(let ((.def_505 (and .def_486 .def_488)))
(let ((.def_474 (<= 0.0 .def_473)))
(let ((.def_475 (not .def_474)))
(let ((.def_502 (or .def_468 .def_475)))
(let ((.def_489 (not .def_488)))
(let ((.def_501 (or .def_486 .def_489)))
(let ((.def_503 (and .def_501 .def_502)))
(let ((.def_506 (and .def_503 .def_505)))
(let ((.def_500 (and .def_468 .def_474)))
(let ((.def_504 (and .def_500 .def_503)))
(let ((.def_507 (or .def_504 .def_506)))
(let ((.def_462 (+ .def_459 .def_461)))
(let ((.def_465 (+ .def_463 .def_462)))
(let ((.def_480 (<= .def_465 0.0 )))
(let ((.def_494 (not .def_480)))
(let ((.def_478 (<= b.y__AT2 0.0 )))
(let ((.def_495 (or .def_478 .def_494)))
(let ((.def_448 (<= 0.0 b.y__AT2)))
(let ((.def_492 (not .def_448)))
(let ((.def_466 (<= 0.0 .def_465)))
(let ((.def_493 (or .def_466 .def_492)))
(let ((.def_496 (and .def_493 .def_495)))
(let ((.def_487 (not .def_486)))
(let ((.def_490 (or .def_487 .def_489)))
(let ((.def_491 (not .def_490)))
(let ((.def_497 (or .def_491 .def_496)))
(let ((.def_482 (not .def_466)))
(let ((.def_483 (or .def_448 .def_482)))
(let ((.def_479 (not .def_478)))
(let ((.def_481 (or .def_479 .def_480)))
(let ((.def_484 (and .def_481 .def_483)))
(let ((.def_476 (or .def_469 .def_475)))
(let ((.def_477 (not .def_476)))
(let ((.def_485 (or .def_477 .def_484)))
(let ((.def_498 (and .def_485 .def_497)))
(let ((.def_467 (and .def_448 .def_466)))
(let ((.def_499 (and .def_467 .def_498)))
(let ((.def_508 (and .def_499 .def_507)))
(let ((.def_509 (and .def_60 .def_508)))
(let ((.def_145 (not b.counter.0__AT1)))
(let ((.def_133 (not b.counter.1__AT1)))
(let ((.def_452 (and .def_133 .def_145)))
(let ((.def_140 (not b.counter.2__AT1)))
(let ((.def_453 (and .def_140 .def_452)))
(let ((.def_155 (not b.counter.3__AT1)))
(let ((.def_454 (and .def_155 .def_453)))
(let ((.def_449 (and .def_60 .def_448)))
(let ((.def_446 (or .def_443 .def_445)))
(let ((.def_436 (or .def_325 .def_337)))
(let ((.def_440 (or b.counter.3__AT2 .def_436)))
(let ((.def_437 (or b.counter.2__AT2 .def_436)))
(let ((.def_435 (or .def_332 .def_337)))
(let ((.def_438 (and .def_435 .def_437)))
(let ((.def_439 (or .def_347 .def_438)))
(let ((.def_441 (and .def_439 .def_440)))
(let ((.def_447 (and .def_441 .def_446)))
(let ((.def_450 (and .def_447 .def_449)))
(let ((.def_430 (<= 0.0 b.delta__AT1)))
(let ((.def_254 (not b.EVENT.0__AT1)))
(let ((.def_252 (not b.EVENT.1__AT1)))
(let ((.def_377 (and .def_252 .def_254)))
(let ((.def_381 (not .def_377)))
(let ((.def_431 (or .def_381 .def_430)))
(let ((.def_432 (or b.EVENT.1__AT1 .def_431)))
(let ((.def_369 (= b.counter.0__AT1 b.counter.0__AT2)))
(let ((.def_367 (= b.counter.1__AT1 b.counter.1__AT2)))
(let ((.def_365 (= b.counter.2__AT1 b.counter.2__AT2)))
(let ((.def_364 (= b.counter.3__AT1 b.counter.3__AT2)))
(let ((.def_366 (and .def_364 .def_365)))
(let ((.def_368 (and .def_366 .def_367)))
(let ((.def_370 (and .def_368 .def_369)))
(let ((.def_427 (or .def_370 .def_381)))
(let ((.def_428 (or b.EVENT.1__AT1 .def_427)))
(let ((.def_415 (* (- 10.0) b.y__AT2)))
(let ((.def_266 (* b.speed_y__AT1 b.delta__AT1)))
(let ((.def_267 (* 10.0 .def_266)))
(let ((.def_419 (+ .def_267 .def_415)))
(let ((.def_264 (* b.delta__AT1 b.delta__AT1)))
(let ((.def_265 (* (- 49.0) .def_264)))
(let ((.def_420 (+ .def_265 .def_419)))
(let ((.def_269 (* 10.0 b.y__AT1)))
(let ((.def_421 (+ .def_269 .def_420)))
(let ((.def_422 (= .def_421 0.0 )))
(let ((.def_411 (* (- 5.0) b.speed_y__AT2)))
(let ((.def_276 (* (- 49.0) b.delta__AT1)))
(let ((.def_412 (+ .def_276 .def_411)))
(let ((.def_277 (* 5.0 b.speed_y__AT1)))
(let ((.def_413 (+ .def_277 .def_412)))
(let ((.def_414 (= .def_413 0.0 )))
(let ((.def_423 (and .def_414 .def_422)))
(let ((.def_424 (or .def_381 .def_423)))
(let ((.def_375 (= b.y__AT1 b.y__AT2)))
(let ((.def_363 (= b.speed_y__AT1 b.speed_y__AT2)))
(let ((.def_408 (and .def_363 .def_375)))
(let ((.def_405 (= b.delta__AT1 0.0 )))
(let ((.def_406 (and .def_377 .def_405)))
(let ((.def_407 (not .def_406)))
(let ((.def_409 (or .def_407 .def_408)))
(let ((.def_410 (or b.EVENT.1__AT1 .def_409)))
(let ((.def_425 (and .def_410 .def_424)))
(let ((.def_387 (= b.time__AT1 b.time__AT2)))
(let ((.def_399 (and .def_375 .def_387)))
(let ((.def_400 (and .def_363 .def_399)))
(let ((.def_401 (and .def_370 .def_400)))
(let ((.def_402 (or .def_252 .def_401)))
(let ((.def_390 (* (- 1.0) b.time__AT2)))
(let ((.def_393 (+ b.delta__AT1 .def_390)))
(let ((.def_394 (+ b.time__AT1 .def_393)))
(let ((.def_395 (= .def_394 0.0 )))
(let ((.def_396 (or .def_381 .def_395)))
(let ((.def_397 (or b.EVENT.1__AT1 .def_396)))
(let ((.def_388 (or .def_377 .def_387)))
(let ((.def_389 (or b.EVENT.1__AT1 .def_388)))
(let ((.def_398 (and .def_389 .def_397)))
(let ((.def_403 (and .def_398 .def_402)))
(let ((.def_383 (= .def_381 b.event_is_timed__AT2)))
(let ((.def_380 (= b.event_is_timed__AT1 .def_377)))
(let ((.def_384 (and .def_380 .def_383)))
(let ((.def_371 (and .def_363 .def_370)))
(let ((.def_317 (= b.y__AT1 0.0 )))
(let ((.def_274 (<= 0.0 b.speed_y__AT1)))
(let ((.def_275 (not .def_274)))
(let ((.def_318 (and .def_275 .def_317)))
(let ((.def_372 (or .def_318 .def_371)))
(let ((.def_338 (or b.counter.0__AT1 .def_337)))
(let ((.def_336 (or .def_145 b.counter.0__AT2)))
(let ((.def_339 (and .def_336 .def_338)))
(let ((.def_340 (and .def_325 .def_339)))
(let ((.def_341 (or b.counter.1__AT1 .def_340)))
(let ((.def_335 (or .def_133 b.counter.1__AT2)))
(let ((.def_342 (and .def_335 .def_341)))
(let ((.def_355 (and .def_332 .def_342)))
(let ((.def_356 (or b.counter.2__AT1 .def_355)))
(let ((.def_350 (and .def_145 .def_325)))
(let ((.def_351 (or b.counter.1__AT1 .def_350)))
(let ((.def_352 (and .def_335 .def_351)))
(let ((.def_353 (and b.counter.2__AT2 .def_352)))
(let ((.def_354 (or .def_140 .def_353)))
(let ((.def_357 (and .def_354 .def_356)))
(let ((.def_358 (and b.counter.3__AT2 .def_357)))
(let ((.def_359 (or b.counter.3__AT1 .def_358)))
(let ((.def_343 (and b.counter.2__AT2 .def_342)))
(let ((.def_344 (or b.counter.2__AT1 .def_343)))
(let ((.def_329 (or b.counter.1__AT1 b.counter.1__AT2)))
(let ((.def_327 (and .def_325 b.counter.0__AT2)))
(let ((.def_328 (or .def_133 .def_327)))
(let ((.def_330 (and .def_328 .def_329)))
(let ((.def_333 (and .def_330 .def_332)))
(let ((.def_334 (or .def_140 .def_333)))
(let ((.def_345 (and .def_334 .def_344)))
(let ((.def_348 (and .def_345 .def_347)))
(let ((.def_349 (or .def_155 .def_348)))
(let ((.def_360 (and .def_349 .def_359)))
(let ((.def_320 (* (- 1.0) b.speed_y__AT1)))
(let ((.def_321 (* .def_127 .def_320)))
(let ((.def_323 (= .def_321 b.speed_y__AT2)))
(let ((.def_361 (and .def_323 .def_360)))
(let ((.def_319 (not .def_318)))
(let ((.def_362 (or .def_319 .def_361)))
(let ((.def_373 (and .def_362 .def_372)))
(let ((.def_376 (and .def_373 .def_375)))
(let ((.def_378 (or .def_376 .def_377)))
(let ((.def_379 (or b.EVENT.1__AT1 .def_378)))
(let ((.def_385 (and .def_379 .def_384)))
(let ((.def_404 (and .def_385 .def_403)))
(let ((.def_426 (and .def_404 .def_425)))
(let ((.def_429 (and .def_426 .def_428)))
(let ((.def_433 (and .def_429 .def_432)))
(let ((.def_434 (and .def_252 .def_433)))
(let ((.def_451 (and .def_434 .def_450)))
(let ((.def_455 (and .def_451 .def_454)))
(let ((.def_294 (<= b.speed_y__AT1 0.0 )))
(let ((.def_279 (+ .def_277 .def_276)))
(let ((.def_292 (<= .def_279 0.0 )))
(let ((.def_311 (and .def_292 .def_294)))
(let ((.def_280 (<= 0.0 .def_279)))
(let ((.def_281 (not .def_280)))
(let ((.def_308 (or .def_274 .def_281)))
(let ((.def_295 (not .def_294)))
(let ((.def_307 (or .def_292 .def_295)))
(let ((.def_309 (and .def_307 .def_308)))
(let ((.def_312 (and .def_309 .def_311)))
(let ((.def_306 (and .def_274 .def_280)))
(let ((.def_310 (and .def_306 .def_309)))
(let ((.def_313 (or .def_310 .def_312)))
(let ((.def_268 (+ .def_265 .def_267)))
(let ((.def_271 (+ .def_269 .def_268)))
(let ((.def_286 (<= .def_271 0.0 )))
(let ((.def_300 (not .def_286)))
(let ((.def_284 (<= b.y__AT1 0.0 )))
(let ((.def_301 (or .def_284 .def_300)))
(let ((.def_257 (<= 0.0 b.y__AT1)))
(let ((.def_298 (not .def_257)))
(let ((.def_272 (<= 0.0 .def_271)))
(let ((.def_299 (or .def_272 .def_298)))
(let ((.def_302 (and .def_299 .def_301)))
(let ((.def_293 (not .def_292)))
(let ((.def_296 (or .def_293 .def_295)))
(let ((.def_297 (not .def_296)))
(let ((.def_303 (or .def_297 .def_302)))
(let ((.def_288 (not .def_272)))
(let ((.def_289 (or .def_257 .def_288)))
(let ((.def_285 (not .def_284)))
(let ((.def_287 (or .def_285 .def_286)))
(let ((.def_290 (and .def_287 .def_289)))
(let ((.def_282 (or .def_275 .def_281)))
(let ((.def_283 (not .def_282)))
(let ((.def_291 (or .def_283 .def_290)))
(let ((.def_304 (and .def_291 .def_303)))
(let ((.def_273 (and .def_257 .def_272)))
(let ((.def_305 (and .def_273 .def_304)))
(let ((.def_314 (and .def_305 .def_313)))
(let ((.def_315 (and .def_60 .def_314)))
(let ((.def_258 (and .def_60 .def_257)))
(let ((.def_255 (or .def_252 .def_254)))
(let ((.def_245 (or .def_133 .def_145)))
(let ((.def_249 (or b.counter.3__AT1 .def_245)))
(let ((.def_246 (or b.counter.2__AT1 .def_245)))
(let ((.def_244 (or .def_140 .def_145)))
(let ((.def_247 (and .def_244 .def_246)))
(let ((.def_248 (or .def_155 .def_247)))
(let ((.def_250 (and .def_248 .def_249)))
(let ((.def_256 (and .def_250 .def_255)))
(let ((.def_259 (and .def_256 .def_258)))
(let ((.def_239 (<= 0.0 b.delta__AT0)))
(let ((.def_49 (not b.EVENT.0__AT0)))
(let ((.def_47 (not b.EVENT.1__AT0)))
(let ((.def_185 (and .def_47 .def_49)))
(let ((.def_189 (not .def_185)))
(let ((.def_240 (or .def_189 .def_239)))
(let ((.def_241 (or b.EVENT.1__AT0 .def_240)))
(let ((.def_177 (= b.counter.0__AT0 b.counter.0__AT1)))
(let ((.def_175 (= b.counter.1__AT0 b.counter.1__AT1)))
(let ((.def_173 (= b.counter.2__AT0 b.counter.2__AT1)))
(let ((.def_172 (= b.counter.3__AT0 b.counter.3__AT1)))
(let ((.def_174 (and .def_172 .def_173)))
(let ((.def_176 (and .def_174 .def_175)))
(let ((.def_178 (and .def_176 .def_177)))
(let ((.def_236 (or .def_178 .def_189)))
(let ((.def_237 (or b.EVENT.1__AT0 .def_236)))
(let ((.def_225 (* (- 10.0) b.y__AT1)))
(let ((.def_70 (* b.speed_y__AT0 b.delta__AT0)))
(let ((.def_71 (* 10.0 .def_70)))
(let ((.def_228 (+ .def_71 .def_225)))
(let ((.def_66 (* b.delta__AT0 b.delta__AT0)))
(let ((.def_69 (* (- 49.0) .def_66)))
(let ((.def_229 (+ .def_69 .def_228)))
(let ((.def_73 (* 10.0 b.y__AT0)))
(let ((.def_230 (+ .def_73 .def_229)))
(let ((.def_231 (= .def_230 0.0 )))
(let ((.def_220 (* (- 5.0) b.speed_y__AT1)))
(let ((.def_80 (* (- 49.0) b.delta__AT0)))
(let ((.def_221 (+ .def_80 .def_220)))
(let ((.def_82 (* 5.0 b.speed_y__AT0)))
(let ((.def_222 (+ .def_82 .def_221)))
(let ((.def_223 (= .def_222 0.0 )))
(let ((.def_232 (and .def_223 .def_231)))
(let ((.def_233 (or .def_189 .def_232)))
(let ((.def_183 (= b.y__AT0 b.y__AT1)))
(let ((.def_171 (= b.speed_y__AT0 b.speed_y__AT1)))
(let ((.def_216 (and .def_171 .def_183)))
(let ((.def_213 (= b.delta__AT0 0.0 )))
(let ((.def_214 (and .def_185 .def_213)))
(let ((.def_215 (not .def_214)))
(let ((.def_217 (or .def_215 .def_216)))
(let ((.def_218 (or b.EVENT.1__AT0 .def_217)))
(let ((.def_234 (and .def_218 .def_233)))
(let ((.def_195 (= b.time__AT0 b.time__AT1)))
(let ((.def_207 (and .def_183 .def_195)))
(let ((.def_208 (and .def_171 .def_207)))
(let ((.def_209 (and .def_178 .def_208)))
(let ((.def_210 (or .def_47 .def_209)))
(let ((.def_198 (* (- 1.0) b.time__AT1)))
(let ((.def_201 (+ b.delta__AT0 .def_198)))
(let ((.def_202 (+ b.time__AT0 .def_201)))
(let ((.def_203 (= .def_202 0.0 )))
(let ((.def_204 (or .def_189 .def_203)))
(let ((.def_205 (or b.EVENT.1__AT0 .def_204)))
(let ((.def_196 (or .def_185 .def_195)))
(let ((.def_197 (or b.EVENT.1__AT0 .def_196)))
(let ((.def_206 (and .def_197 .def_205)))
(let ((.def_211 (and .def_206 .def_210)))
(let ((.def_191 (= .def_189 b.event_is_timed__AT1)))
(let ((.def_188 (= b.event_is_timed__AT0 .def_185)))
(let ((.def_192 (and .def_188 .def_191)))
(let ((.def_179 (and .def_171 .def_178)))
(let ((.def_122 (= b.y__AT0 0.0 )))
(let ((.def_78 (<= 0.0 b.speed_y__AT0)))
(let ((.def_79 (not .def_78)))
(let ((.def_123 (and .def_79 .def_122)))
(let ((.def_180 (or .def_123 .def_179)))
(let ((.def_146 (or b.counter.0__AT0 .def_145)))
(let ((.def_30 (not b.counter.0__AT0)))
(let ((.def_144 (or .def_30 b.counter.0__AT1)))
(let ((.def_147 (and .def_144 .def_146)))
(let ((.def_148 (and .def_133 .def_147)))
(let ((.def_149 (or b.counter.1__AT0 .def_148)))
(let ((.def_28 (not b.counter.1__AT0)))
(let ((.def_143 (or .def_28 b.counter.1__AT1)))
(let ((.def_150 (and .def_143 .def_149)))
(let ((.def_163 (and .def_140 .def_150)))
(let ((.def_164 (or b.counter.2__AT0 .def_163)))
(let ((.def_158 (and .def_30 .def_133)))
(let ((.def_159 (or b.counter.1__AT0 .def_158)))
(let ((.def_160 (and .def_143 .def_159)))
(let ((.def_161 (and b.counter.2__AT1 .def_160)))
(let ((.def_33 (not b.counter.2__AT0)))
(let ((.def_162 (or .def_33 .def_161)))
(let ((.def_165 (and .def_162 .def_164)))
(let ((.def_166 (and b.counter.3__AT1 .def_165)))
(let ((.def_167 (or b.counter.3__AT0 .def_166)))
(let ((.def_151 (and b.counter.2__AT1 .def_150)))
(let ((.def_152 (or b.counter.2__AT0 .def_151)))
(let ((.def_137 (or b.counter.1__AT0 b.counter.1__AT1)))
(let ((.def_135 (and .def_133 b.counter.0__AT1)))
(let ((.def_136 (or .def_28 .def_135)))
(let ((.def_138 (and .def_136 .def_137)))
(let ((.def_141 (and .def_138 .def_140)))
(let ((.def_142 (or .def_33 .def_141)))
(let ((.def_153 (and .def_142 .def_152)))
(let ((.def_156 (and .def_153 .def_155)))
(let ((.def_36 (not b.counter.3__AT0)))
(let ((.def_157 (or .def_36 .def_156)))
(let ((.def_168 (and .def_157 .def_167)))
(let ((.def_128 (* (- 1.0) b.speed_y__AT0)))
(let ((.def_129 (* .def_127 .def_128)))
(let ((.def_131 (= .def_129 b.speed_y__AT1)))
(let ((.def_169 (and .def_131 .def_168)))
(let ((.def_124 (not .def_123)))
(let ((.def_170 (or .def_124 .def_169)))
(let ((.def_181 (and .def_170 .def_180)))
(let ((.def_184 (and .def_181 .def_183)))
(let ((.def_186 (or .def_184 .def_185)))
(let ((.def_187 (or b.EVENT.1__AT0 .def_186)))
(let ((.def_193 (and .def_187 .def_192)))
(let ((.def_212 (and .def_193 .def_211)))
(let ((.def_235 (and .def_212 .def_234)))
(let ((.def_238 (and .def_235 .def_237)))
(let ((.def_242 (and .def_238 .def_241)))
(let ((.def_243 (and .def_47 .def_242)))
(let ((.def_260 (and .def_243 .def_259)))
(let ((.def_31 (and .def_28 .def_30)))
(let ((.def_34 (and .def_31 .def_33)))
(let ((.def_37 (and .def_34 .def_36)))
(let ((.def_261 (and .def_37 .def_260)))
(let ((.def_99 (<= b.speed_y__AT0 0.0 )))
(let ((.def_84 (+ .def_82 .def_80)))
(let ((.def_97 (<= .def_84 0.0 )))
(let ((.def_116 (and .def_97 .def_99)))
(let ((.def_85 (<= 0.0 .def_84)))
(let ((.def_86 (not .def_85)))
(let ((.def_113 (or .def_78 .def_86)))
(let ((.def_100 (not .def_99)))
(let ((.def_112 (or .def_97 .def_100)))
(let ((.def_114 (and .def_112 .def_113)))
(let ((.def_117 (and .def_114 .def_116)))
(let ((.def_111 (and .def_78 .def_85)))
(let ((.def_115 (and .def_111 .def_114)))
(let ((.def_118 (or .def_115 .def_117)))
(let ((.def_72 (+ .def_69 .def_71)))
(let ((.def_75 (+ .def_73 .def_72)))
(let ((.def_91 (<= .def_75 0.0 )))
(let ((.def_105 (not .def_91)))
(let ((.def_89 (<= b.y__AT0 0.0 )))
(let ((.def_106 (or .def_89 .def_105)))
(let ((.def_52 (<= 0.0 b.y__AT0)))
(let ((.def_103 (not .def_52)))
(let ((.def_76 (<= 0.0 .def_75)))
(let ((.def_104 (or .def_76 .def_103)))
(let ((.def_107 (and .def_104 .def_106)))
(let ((.def_98 (not .def_97)))
(let ((.def_101 (or .def_98 .def_100)))
(let ((.def_102 (not .def_101)))
(let ((.def_108 (or .def_102 .def_107)))
(let ((.def_93 (not .def_76)))
(let ((.def_94 (or .def_52 .def_93)))
(let ((.def_90 (not .def_89)))
(let ((.def_92 (or .def_90 .def_91)))
(let ((.def_95 (and .def_92 .def_94)))
(let ((.def_87 (or .def_79 .def_86)))
(let ((.def_88 (not .def_87)))
(let ((.def_96 (or .def_88 .def_95)))
(let ((.def_109 (and .def_96 .def_108)))
(let ((.def_77 (and .def_52 .def_76)))
(let ((.def_110 (and .def_77 .def_109)))
(let ((.def_119 (and .def_110 .def_118)))
(let ((.def_120 (and .def_60 .def_119)))
(let ((.def_61 (and .def_52 .def_60)))
(let ((.def_50 (or .def_47 .def_49)))
(let ((.def_40 (or .def_28 .def_30)))
(let ((.def_44 (or b.counter.3__AT0 .def_40)))
(let ((.def_41 (or b.counter.2__AT0 .def_40)))
(let ((.def_39 (or .def_30 .def_33)))
(let ((.def_42 (and .def_39 .def_41)))
(let ((.def_43 (or .def_36 .def_42)))
(let ((.def_45 (and .def_43 .def_44)))
(let ((.def_51 (and .def_45 .def_50)))
(let ((.def_62 (and .def_51 .def_61)))
(let ((.def_25 (= b.speed_y__AT0 0.0 )))
(let ((.def_22 (= b.y__AT0 10.0 )))
(let ((.def_17 (= b.time__AT0 0.0 )))
(let ((.def_19 (and .def_17 b.event_is_timed__AT0)))
(let ((.def_23 (and .def_19 .def_22)))
(let ((.def_26 (and .def_23 .def_25)))
(let ((.def_38 (and .def_26 .def_37)))
(let ((.def_63 (and .def_38 .def_62)))
(let ((.def_7 (and .def_4 .def_6)))
(let ((.def_10 (and .def_7 .def_9)))
(let ((.def_13 (and .def_10 .def_12)))
(let ((.def_14 (not .def_13)))
(let ((.def_64 (and .def_14 .def_63)))
(let ((.def_121 (and .def_64 .def_120)))
(let ((.def_262 (and .def_121 .def_261)))
(let ((.def_316 (and .def_262 .def_315)))
(let ((.def_456 (and .def_316 .def_455)))
(let ((.def_510 (and .def_456 .def_509)))
(let ((.def_642 (and .def_510 .def_641)))
(let ((.def_696 (and .def_642 .def_695)))
.def_696))))))))))))))))))))))))))))))))))))))))))))))))))))))))))))))))))))))))))))))))))))))))))))))))))))))))))))))))))))))))))))))))))))))))))))))))))))))))))))))))))))))))))))))))))))))))))))))))))))))))))))))))))))))))))))))))))))))))))))))))))))))))))))))))))))))))))))))))))))))))))))))))))))))))))))))))))))))))))))))))))))))))))))))))))))))))))))))))))))))))))))))))))))))))))))))))))))))))))))))))))))))))))))))))))))))))))))))))))))))))))))))))))))))))))))))))))))))))))))))))))))))))))))))))))))))))))))))))))))))))))))))))))))))))))))))))))))))))))))))))))))))))))))))))))))))))))))))))))))))))))))))))))))))))
(check-sat)
(exit)
